p td 60 60
5 9
5 50
9 57
4 51
4 13
51 33
50 35
46 56
46 58
56 29
13 59
59 34
32 44
32 1
44 55
10 15
10 34
15 24
27 42
27 36
42 19
33 54
28 45
28 58
45 30
16 57
16 37
6 17
6 43
17 41
12 55
12 54
11 19
11 53
41 47
47 22
43 3
35 22
20 39
20 53
39 1
36 2
48 52
48 14
52 0
0 40
40 14
37 26
25 49
25 2
49 3
8 21
8 18
21 29
7 18
7 30
26 31
23 38
23 24
38 31
